Route #1: 1 3 49 10 17 39 35 33 20 16 50 18 47 1
Route #2: 1 41 43 21 31 19 2 37 11 1
Route #3: 1 28 9 6 52 30 38 1
Route #4: 1 42 26 7 48 45 34 36 8 1
Route #5: 1 14 27 23 51 13 24 5 1
Route #6: 1 46 12 29 32 25 4 40 15 22 1
Route #7: 1 44 1
cost 832.6004354225491